language ESSENCE' 1.0
letting actionFrom be [0, 2, 3, 3, 2, 3, 0, 3, 3, 0, 0, 3, 2, 3, 2, 3, 2, 3, 2]
letting actionTo be [2, 3, 2, 2, 1, 2, 2, 2, 2, 2, 2, 2, 1, 2, 1, 2, 3, 2, 1]
letting actionTypes be [1, 4, 8, 8, 2, 7, 1, 5, 7, 1, 1, 7, 2, 7, 2, 6, 4, 7, 2]
letting pointers be [[0, 1, 1, 1, 1, 1, 1, 2, 2, 2, 3, 4, 4, 4, 4, 4, 4, 4, 4, 4;int(0..19)], 
[0, 0, 0, 0, 0, 1, 1, 1, 1, 1, 1, 1, 1, 2, 2, 3, 3, 3, 3, 4;int(0..19)];int(0..1)]
letting statePlaces be [[-1, 6, 6, 5, 4, 4, 5, 3, 8, 6, 8, 1, 7, 7, 8, 8, 0, 0, 1, 1;int(0..19)], 
[-1, -1, 6, 5, 4, 4, 5, 5, 5, 6, 6, 6, 7, 7, 8, 8, 8, 0, 1, 1;int(0..19)];int(2..3)]
